data;

param n := 16;

param p := 8;

param e := 23;

set EDJ := (3,13) (12,8) (6,16) (11,5) (3,7) (10,7) (4,5) (2,6) (3,16) (9,8) (3,14) (2,8) (4,2) (1,14) (10,9) (3,8) (10,4) (15,9) (11,6) (5,6) (4,14) (1,4) (3,2);

param PD :=
	1	2
	2	4
	3	6
	4	5
	5	3
	6	5
	7	2
	8	4
	9	3
	10	3
	11	3
	12	1
	13	1
	14	3
	15	1
	16	2
;

param AG :
	1	2	3	4	5	6	7	8	9	10	11	12	13	14	15	16 :=
1	0.0	0.0	0.0	0.0	0.0	0.0	0.0	0.0	0.0	0.0	0.0	0.0	0.0	0.0	0.0	0.0
2	0.0	0.0	0.0	0.0	0.0	0.0	0.0	0.0	0.0	0.0	0.0	0.0	0.0	0.0	0.0	0.0
3	0.0	0.0	0.0	0.0	0.0	0.0	0.0	0.0	0.0	0.0	0.0	0.0	0.0	0.0	0.0	0.0
4	0.0	0.0	0.0	0.0	0.0	0.0	0.0	0.0	0.0	0.0	0.0	0.0	0.0	0.0	0.0	0.0
5	0.0	0.0	0.0	0.0	0.0	0.0	0.0	0.0	0.0	0.0	0.0	0.0	0.0	0.0	0.0	0.0
6	0.0	0.0	0.0	0.0	0.0	0.0	0.0	0.0	0.0	0.0	0.0	0.0	0.0	0.0	0.0	0.0
7	0.0	0.0	0.0	0.0	0.0	0.0	0.0	0.0	0.0	0.0	0.0	0.0	0.0	0.0	0.0	0.0
8	0.0	0.0	0.0	0.0	0.0	0.0	0.0	0.0	0.0	0.0	0.0	0.0	0.0	0.0	0.0	0.0
9	0.0	0.0	0.0	0.0	0.0	0.0	0.0	0.0	0.0	0.0	0.0	0.0	0.0	0.0	0.0	0.0
10	0.0	0.0	0.0	0.0	0.0	0.0	0.0	0.0	0.0	0.0	0.0	0.0	0.0	0.0	0.0	0.0
11	0.0	0.0	0.0	0.0	0.0	0.0	0.0	0.0	0.0	0.0	0.0	0.0	0.0	0.0	0.0	0.0
12	0.0	0.0	0.0	0.0	0.0	0.0	0.0	0.0	0.0	0.0	0.0	0.0	0.0	0.0	0.0	0.0
13	0.0	0.0	0.0	0.0	0.0	0.0	0.0	0.0	0.0	0.0	0.0	0.0	0.0	0.0	0.0	0.0
14	0.0	0.0	0.0	0.0	0.0	0.0	0.0	0.0	0.0	0.0	0.0	0.0	0.0	0.0	0.0	0.0
15	0.0	0.0	0.0	0.0	0.0	0.0	0.0	0.0	0.0	0.0	0.0	0.0	0.0	0.0	0.0	0.0
16	0.0	0.0	0.0	0.0	0.0	0.0	0.0	0.0	0.0	0.0	0.0	0.0	0.0	0.0	0.0	0.0
;

param PI :
	1	2	3	4	5	6	7	8 :=
1	1.6416	1.7927	1.4111	1.8371	1.7971	1.7096	1.2556	1.98
2	2.0721	1.9229	1.5413	1.9729	2.18	1.9879	1.4333	2.3857
3	1.8117	1.7444	1.3889	1.7875	1.9229	1.7575	1.2778	2.1
4	1.6581	1.721	1.3667	1.7668	1.7914	1.6993	1.2333	1.98
5	2.153	2.2775	1.8063	2.3386	2.3371	2.2336	1.6222	2.5886
6	1.5806	1.5737	1.2746	1.6264	1.6886	1.6564	1.1667	1.9057
7	1.9083	1.9533	1.5571	2.0075	2.0543	1.955	1.4111	2.2771
8	1.7035	1.8749	1.4762	1.9221	1.8686	1.7871	1.3111	2.0629
9	2.2613	2.3641	1.8651	2.4211	2.4486	2.2861	1.6778	2.6829
10	2.2606	2.2956	1.8651	2.3775	2.4257	2.43	1.7	2.7629
11	1.9289	2.0552	1.6349	2.1136	2.0971	2.0311	1.4667	2.3371
12	1.8898	2.0943	1.6429	2.1443	2.0771	1.9718	1.4556	2.2829
13	2.0616	1.8946	1.5651	1.9682	2.16	2.1332	1.4667	2.4629
14	1.9927	1.966	1.6079	2.0396	2.1229	2.1296	1.4778	2.4257
15	1.7819	1.6683	1.3508	1.7196	1.8771	1.7721	1.2556	2.0886
16	2.0702	2.2283	1.7952	2.3046	2.2543	2.2821	1.6111	2.5686
;

param CA :
	1	2	3	4	5	6	7	8	9	10	11	12	13	14	15	16 :=
1	0.0	0.0	0.0	0.6	0.0	0.0	0.0	0.0	0.0	0.0	0.0	0.0	0.0	0.6	0.0	0.0
2	0.0	0.0	0.6	0.6	0.0	0.6	0.0	0.6	0.0	0.0	0.0	0.0	0.0	0.0	0.0	0.0
3	0.0	0.6	0.0	0.0	0.0	0.0	0.6	0.6	0.0	0.0	0.0	0.0	0.6	0.6	0.0	0.6
4	0.6	0.6	0.0	0.0	0.6	0.0	0.0	0.0	0.0	0.6	0.0	0.0	0.0	0.6	0.0	0.0
5	0.0	0.0	0.0	0.6	0.0	0.6	0.0	0.0	0.0	0.0	0.6	0.0	0.0	0.0	0.0	0.0
6	0.0	0.6	0.0	0.0	0.6	0.0	0.0	0.0	0.0	0.0	1.2	0.0	0.0	0.0	0.0	0.6
7	0.0	0.0	0.6	0.0	0.0	0.0	0.0	0.0	0.0	0.6	0.0	0.0	0.0	0.0	0.0	0.0
8	0.0	0.6	0.6	0.0	0.0	0.0	0.0	0.0	0.6	0.0	0.0	0.6	0.0	0.0	0.0	0.0
9	0.0	0.0	0.0	0.0	0.0	0.0	0.0	0.6	0.0	0.6	0.0	0.0	0.0	0.0	0.6	0.0
10	0.0	0.0	0.0	0.6	0.0	0.0	0.6	0.0	0.6	0.0	0.0	0.0	0.0	0.0	0.0	0.0
11	0.0	0.0	0.0	0.0	0.6	1.2	0.0	0.0	0.0	0.0	0.0	0.0	0.0	0.0	0.0	0.0
12	0.0	0.0	0.0	0.0	0.0	0.0	0.0	0.6	0.0	0.0	0.0	0.0	0.0	0.0	0.0	0.0
13	0.0	0.0	0.6	0.0	0.0	0.0	0.0	0.0	0.0	0.0	0.0	0.0	0.0	0.0	0.0	0.0
14	0.6	0.0	0.6	0.6	0.0	0.0	0.0	0.0	0.0	0.0	0.0	0.0	0.0	0.0	0.0	0.0
15	0.0	0.0	0.0	0.0	0.0	0.0	0.0	0.0	0.6	0.0	0.0	0.0	0.0	0.0	0.0	0.0
16	0.0	0.0	0.6	0.0	0.0	0.6	0.0	0.0	0.0	0.0	0.0	0.0	0.0	0.0	0.0	0.0
;

param CP :
	1	2	3	4	5	6	7	8 :=
1	1.1463	1.6593	1.4013	1.6074	1.1689	1.5199	1.0677	1.4877
2	1.6521	1.1287	1.714	1.0178	1.4353	1.6224	1.7743	1.6259
3	1.119	1.3054	1.6698	1.6623	1.3842	1.6927	1.1176	1.4083
4	1.8974	1.5519	1.958	1.9162	1.2286	1.5147	1.6957	1.7395
5	1.3424	1.9691	1.9035	1.7036	1.2567	1.2338	1.0063	1.6122
6	1.4069	1.4715	1.7295	1.1907	1.1016	1.398	1.6768	1.625
7	1.2107	1.6128	1.081	1.7721	1.8883	1.2911	1.7643	1.4894
8	1.6993	1.0555	1.7378	1.5582	1.9943	1.0753	1.6737	1.3617
;

